# Data

param T = 10;
param nrTask = 3;
param nrNodes = 7;
param nrAGVs = 2;
param edgeCap = 1; 

param: ARCS: TAU :=
	0 2 2	1 2 3	2 3 3	2 4 4	0 5 2	5 6 3;

param: LINK: TASK_ID :=
	0 3 1	1 4 2	0 6	3;

param AT: 0 1 2 3 4 5 6 :=
		1 1 0 0 1 0 0 0
		2 0 1 0 0 1 0 0
		3 1 0 0 0 0 0 1;

set SRC = 0,1;
set SNK = 3,4,6;
set INTER = 2,5;



